proyfinal/src/viki/013/andrea/andrea-localstore/experimentInOfficeAgust.take6/worker_3/5689c891-98ed-44ac-a134-299653094b74.als.cnf.out
Reading from standard input... Use '--help' for help.
============================[ Problem Statistics ]=============================
|                                                                             |
|  Number of variables:         87638                                         |
|  Number of clauses:          161767                                         |
|  Parse time:                   0.03 s                                       |
|                                                                             |
============================[ Search Statistics ]==============================
| Conflicts |          ORIGINAL         |          LEARNT          | Progress |
|           |    Vars  Clauses Literals |    Limit  Clauses Lit/Cl |          |
===============================================================================
|       100 |   62889   107251   267369 |    39325      100     11 | 28.240 % |
|       250 |   62889   107251   267369 |    43257      250     42 | 28.240 % |
|       475 |   62889   107251   267369 |    47583      475     72 | 28.240 % |
|       812 |   62889   107251   267369 |    52342      812     68 | 28.240 % |
|      1318 |   62889   107251   267369 |    57576     1318     65 | 28.240 % |
|      2077 |   62881   107219   267281 |    63333     1970     66 | 28.249 % |
|      3216 |   62881   107219   267281 |    69667     3109     72 | 28.249 % |
|      4924 |   62814   106945   266643 |    76634     4781     75 | 28.326 % |
|      7486 |   62814   106945   266643 |    84297     7343     77 | 28.326 % |
|     11330 |   62788   106802   266331 |    92727    10536     85 | 28.355 % |
|     17096 |   62733   106578   265810 |   101999    16218     85 | 28.418 % |
===============================================================================
restarts              : 63
conflicts             : 17654          (7610 /sec)
decisions             : 70784          (0.00 % random) (30512 /sec)
propagations          : 22359774       (9638419 /sec)
conflict literals     : 1502888        (51.73 % deleted)
Memory used           : 41.49 MB
CPU time              : 2.31986 s

INDETERMINATE
